db/data/3813281291531093902027352711125364.z3.out
-------------------
2500.116851754
